0
Node Left Objective IInf Best_Integer Best_Bound ItCnt Gap
0 0 0.0000 6 0.0000 77
0 0 0.0000 5 LiftProj:3 86
0 0 0.0000 5 LiftProj:2 94
0 0 0.0000 5 LiftProj:6 102
0 2 0.0000 5 0.0000 102 0 0
CPXPARAM_MIP_Cuts_LiftProj 6
1
Node Left Objective IInf Best_Integer Best_Bound ItCnt Gap
0 0 0.0000 4 0.0000 57
0 2 0.0000 4 0.0000 57 0 0
CPXPARAM_MIP_Cuts_LiftProj 0
2
Node Left Objective IInf Best_Integer Best_Bound ItCnt Gap
0 0 0.0000 6 0.0000 57
0 0 0.0000 6 LiftProj:4 67
0 0 0.0000 5 LiftProj:2 72
0 2 0.0000 5 0.0000 72 0 0
CPXPARAM_MIP_Cuts_LiftProj 2
3
Node Left Objective IInf Best_Integer Best_Bound ItCnt Gap
0 0 0 0.0000 0.0000 19 0.00% 0
CPXPARAM_MIP_Cuts_LiftProj 0
4
Node Left Objective IInf Best_Integer Best_Bound ItCnt Gap
0 0 0.0000 7 0.0000 62
0 0 0.0000 7 LiftProj:3 67
0 0 0.0000 6 LiftProj:3 70
0 2 0.0000 6 0.0000 70 0 0
CPXPARAM_MIP_Cuts_LiftProj 4
5
Node Left Objective IInf Best_Integer Best_Bound ItCnt Gap
0 0 0.0000 3 0.0000 48
0 2 0.0000 3 0.0000 86 0 0
CPXPARAM_MIP_Cuts_LiftProj 0
6
Node Left Objective IInf Best_Integer Best_Bound ItCnt Gap
0 0 0.0000 5 0.0000 26
0 2 0.0000 3 0.0000 43 0 0
CPXPARAM_MIP_Cuts_LiftProj 0
7
Node Left Objective IInf Best_Integer Best_Bound ItCnt Gap
0 0 0 0.0000 0.0000 28 0.00% 0
CPXPARAM_MIP_Cuts_LiftProj 0
8
Node Left Objective IInf Best_Integer Best_Bound ItCnt Gap
0 0 0.0000 8 0.0000 65
0 0 0.0000 7 LiftProj:2 72
0 0 0.0000 5 LiftProj:7 80
0 0 0.0000 3 LiftProj:4 87
0 0 0.0000 3 LiftProj:3 96
0 2 0.0000 3 0.0000 96 0 0
CPXPARAM_MIP_Cuts_LiftProj 2
9
Node Left Objective IInf Best_Integer Best_Bound ItCnt Gap
0 0 0.0000 4 0.0000 55
0 2 0.0000 4 0.0000 94 0 0
CPXPARAM_MIP_Cuts_LiftProj 0
10
Node Left Objective IInf Best_Integer Best_Bound ItCnt Gap
0 0 0.0000 5 0.0000 71
0 0 0.0000 4 LiftProj:4 76
0 0 0.0000 4 LiftProj:4 79
0 0 0.0000 5 LiftProj:4 87
0 2 0.0000 5 0.0000 87 0 0
CPXPARAM_MIP_Cuts_LiftProj 4
11
Node Left Objective IInf Best_Integer Best_Bound ItCnt Gap
0 0 0.0000 2 0.0000 41
0 2 0.0000 2 0.0000 56 0 0
CPXPARAM_MIP_Cuts_LiftProj 0
12
Node Left Objective IInf Best_Integer Best_Bound ItCnt Gap
0 0 0.0000 4 0.0000 55
0 2 0.0000 4 0.0000 55 0 0
CPXPARAM_MIP_Cuts_LiftProj 0
13
Node Left Objective IInf Best_Integer Best_Bound ItCnt Gap
0 0 0.0000 6 0.0000 57
0 2 0.0000 8 0.0000 77 0 0
CPXPARAM_MIP_Cuts_LiftProj 0
14
Node Left Objective IInf Best_Integer Best_Bound ItCnt Gap
0 0 0.0000 2 0.0000 30
0 2 0.0000 2 0.0000 70 0 0
CPXPARAM_MIP_Cuts_LiftProj 0
15
Node Left Objective IInf Best_Integer Best_Bound ItCnt Gap
0 0 0.0000 1 0.0000 35
0 2 0.0000 2 0.0000 75 0 0
CPXPARAM_MIP_Cuts_LiftProj 0
16
Node Left Objective IInf Best_Integer Best_Bound ItCnt Gap
0 0 0.0000 5 0.0000 63
0 2 0.0000 5 0.0000 63 0 0
CPXPARAM_MIP_Cuts_LiftProj 0
17
Node Left Objective IInf Best_Integer Best_Bound ItCnt Gap
0 0 0.0000 4 0.0000 48
0 2 0.0000 4 0.0000 48 0 0
CPXPARAM_MIP_Cuts_LiftProj 0
18
Node Left Objective IInf Best_Integer Best_Bound ItCnt Gap
0 0 0.0000 4 0.0000 28
0 2 0.0000 5 0.0000 51 0 0
CPXPARAM_MIP_Cuts_LiftProj 0
19
Node Left Objective IInf Best_Integer Best_Bound ItCnt Gap
0 0 0 0.0000 0.0000 40 0.00% 0
CPXPARAM_MIP_Cuts_LiftProj 0
20
Node Left Objective IInf Best_Integer Best_Bound ItCnt Gap
0 0 0.0000 6 0.0000 54
0 0 0.0000 2 LiftProj:2 106
0 2 0.0000 2 0.0000 106 0 0
CPXPARAM_MIP_Cuts_LiftProj 1
21
Node Left Objective IInf Best_Integer Best_Bound ItCnt Gap
0 0 0.0000 3 0.0000 52
0 2 0.0000 4 0.0000 90 0 0
CPXPARAM_MIP_Cuts_LiftProj 0
22
Node Left Objective IInf Best_Integer Best_Bound ItCnt Gap
0 0 0.0000 3 0.0000 18
0 2 0.0000 2 0.0000 44 0 0
CPXPARAM_MIP_Cuts_LiftProj 0
23
Node Left Objective IInf Best_Integer Best_Bound ItCnt Gap
0 0 0.0000 4 0.0000 23
0 2 0.0000 4 0.0000 42 0 0
CPXPARAM_MIP_Cuts_LiftProj 0
24
Node Left Objective IInf Best_Integer Best_Bound ItCnt Gap
0 0 0.0000 3 0.0000 53
0 0 0.0000 2 LiftProj:2 64
0 2 0.0000 2 0.0000 64 0 0
CPXPARAM_MIP_Cuts_LiftProj 1
25
Node Left Objective IInf Best_Integer Best_Bound ItCnt Gap
0 0 0.0000 6 0.0000 52
0 2 0.0000 6 0.0000 52 0 0
CPXPARAM_MIP_Cuts_LiftProj 0
26
Node Left Objective IInf Best_Integer Best_Bound ItCnt Gap
0 0 0 0.0000 0.0000 14 0.00% 0
CPXPARAM_MIP_Cuts_LiftProj 0
27
Node Left Objective IInf Best_Integer Best_Bound ItCnt Gap
0 0 0 0.0000 0.0000 19 0.00% 0
CPXPARAM_MIP_Cuts_LiftProj 0
28
Node Left Objective IInf Best_Integer Best_Bound ItCnt Gap
0 0 0.0000 6 0.0000 62
0 0 0.0000 7 LiftProj:2 67
0 0 0.0000 6 LiftProj:1 70
0 2 0.0000 6 0.0000 70 0 0
CPXPARAM_MIP_Cuts_LiftProj 2
29
Node Left Objective IInf Best_Integer Best_Bound ItCnt Gap
0 0 0.0000 4 0.0000 48
0 2 0.0000 4 0.0000 99 0 0
CPXPARAM_MIP_Cuts_LiftProj 0
30
Node Left Objective IInf Best_Integer Best_Bound ItCnt Gap
0 0 0 0.0000 0.0000 20 0.00% 0
CPXPARAM_MIP_Cuts_LiftProj 0
31
Node Left Objective IInf Best_Integer Best_Bound ItCnt Gap
0 0 0 0.0000 0.0000 27 0.00% 0
CPXPARAM_MIP_Cuts_LiftProj 0
32
Node Left Objective IInf Best_Integer Best_Bound ItCnt Gap
0 0 0.0000 9 0.0000 59
0 0 0.0000 9 LiftProj:3 68
0 0 0.0000 7 LiftProj:2 74
0 0 0.0000 8 LiftProj:2 82
0 2 0.0000 8 0.0000 82 0 0
CPXPARAM_MIP_Cuts_LiftProj 3
33
Node Left Objective IInf Best_Integer Best_Bound ItCnt Gap
0 0 0.0000 7 0.0000 61
0 0 0.0000 7 LiftProj:1 63
0 2 0.0000 7 0.0000 63 0 0
CPXPARAM_MIP_Cuts_LiftProj 1
34
Node Left Objective IInf Best_Integer Best_Bound ItCnt Gap
0 0 0.0000 3 0.0000 40
0 2 0.0000 4 0.0000 72 0 0
CPXPARAM_MIP_Cuts_LiftProj 0
35
Node Left Objective IInf Best_Integer Best_Bound ItCnt Gap
0 0 0 0.0000 0.0000 28 0.00% 0
CPXPARAM_MIP_Cuts_LiftProj 0
36
Node Left Objective IInf Best_Integer Best_Bound ItCnt Gap
0 0 0.0000 8 0.0000 61
0 0 0.0000 8 LiftProj:4 71
0 0 0.0000 7 LiftProj:2 79
0 2 0.0000 7 0.0000 79 0 0
CPXPARAM_MIP_Cuts_LiftProj 3
37
Node Left Objective IInf Best_Integer Best_Bound ItCnt Gap
0 0 0.0000 5 0.0000 63
0 2 0.0000 6 0.0000 63 0 0
CPXPARAM_MIP_Cuts_LiftProj 0
38
Node Left Objective IInf Best_Integer Best_Bound ItCnt Gap
0 0 0.0000 3 0.0000 39
0 2 0.0000 2 0.0000 56 0 0
CPXPARAM_MIP_Cuts_LiftProj 0
39
Node Left Objective IInf Best_Integer Best_Bound ItCnt Gap
0 0 0 0.0000 0.0000 28 0.00% 0
CPXPARAM_MIP_Cuts_LiftProj 0
